(set-logic HORN)

(declare-fun __VERIFIER_assert (Int) Bool)
(declare-fun $main_inv120 ((Array Int Int) (Array Int Int) (Array Int Int) (Array Int Int) (Array Int Int) Int Int Int) Bool)
(declare-fun $main_sum124 ((Array Int Int) (Array Int Int) (Array Int Int) (Array Int Int) (Array Int Int) Int Int Int) Bool)
(declare-fun $main_inv121 ((Array Int Int) (Array Int Int) (Array Int Int) (Array Int Int) (Array Int Int) Int Int Int) Bool)
(declare-fun $main_inv123 ((Array Int Int) (Array Int Int) (Array Int Int) (Array Int Int) (Array Int Int) Int Int Int) Bool)
(declare-fun $main_sum121 ((Array Int Int) (Array Int Int) (Array Int Int) (Array Int Int) (Array Int Int) Int Int Int) Bool)
(declare-fun $main_inv122 ((Array Int Int) (Array Int Int) (Array Int Int) (Array Int Int) (Array Int Int) Int Int Int) Bool)
(declare-fun $main_inv124 ((Array Int Int) (Array Int Int) (Array Int Int) (Array Int Int) (Array Int Int) Int Int Int) Bool)
(declare-fun $main_inv119 ((Array Int Int) (Array Int Int) (Array Int Int) (Array Int Int) (Array Int Int) Int Int Int) Bool)
(declare-fun $main_sum119 ((Array Int Int) (Array Int Int) (Array Int Int) (Array Int Int) (Array Int Int) Int Int Int) Bool)
(declare-fun $__VERIFIER_assert_ERROR (Int) Bool)
(declare-fun $main_sum123 ((Array Int Int) (Array Int Int) (Array Int Int) (Array Int Int) (Array Int Int) Int Int Int) Bool)
(declare-fun $__VERIFIER_assert_pre (Int) Bool)
(declare-fun $__VERIFIER_assert_if50 (Int) Bool)
(declare-fun $main_sum122 ((Array Int Int) (Array Int Int) (Array Int Int) (Array Int Int) (Array Int Int) Int Int Int) Bool)
(declare-fun $main_sum120 ((Array Int Int) (Array Int Int) (Array Int Int) (Array Int Int) (Array Int Int) Int Int Int) Bool)

; label ERROR
(assert
  (forall ((cond Int))
    (=> (and (= cond 0)
             ($__VERIFIER_assert_pre cond))
        ($__VERIFIER_assert_ERROR cond))))

; error
(assert
  (forall ((cond1794 Int))
    (=> (and ($__VERIFIER_assert_ERROR cond1794))
        false)))

; if else
(assert
  (forall ((cond Int))
    (=> (and (not (= cond 0))
             ($__VERIFIER_assert_pre cond))
        ($__VERIFIER_assert_if50 cond))))

; post __VERIFIER_assert
(assert
  (forall ((cond1795 Int))
    (=> (and ($__VERIFIER_assert_if50 cond1795))
        (__VERIFIER_assert cond1795))))

; loop entry $main_inv119
(assert
  (forall (($a3200 (Array Int Int)) ($x205 Int) ($a2199 (Array Int Int)) ($a1198 (Array Int Int)) ($i204 Int) ($a5202 (Array Int Int)) ($a4201 (Array Int Int)))
        ($main_inv119 $a1198 $a2199 $a3200 $a4201 $a5202 0 $i204 $x205)))

; loop term $main_sum119
(assert
  (forall (($a42011799 (Array Int Int)) ($i2041802 Int) ($a52021800 (Array Int Int)) ($a32001798 (Array Int Int)) ($a21991797 (Array Int Int)) ($a2031801 Int) ($a11981796 (Array Int Int)) ($x2051803 Int))
    (=> (and (not (< $a2031801 100000))
             ($main_inv119 $a11981796 $a21991797 $a32001798 $a42011799 $a52021800 $a2031801 $i2041802 $x2051803))
        ($main_sum119 $a11981796 $a21991797 $a32001798 $a42011799 $a52021800 $a2031801 $i2041802 $x2051803))))

; forwards $main_inv119
(assert
  (forall (($a42011799 (Array Int Int)) ($i2041802 Int) ($a52021800 (Array Int Int)) ($a32001798 (Array Int Int)) ($int1804 Int) ($int1805 Int) ($a21991797 (Array Int Int)) ($a2031801 Int) ($a11981796 (Array Int Int)) ($x2051803 Int))
    (=> (and (<= (- 2147483648) $int1805)
             (<= $int1805 2147483647)
             (<= (- 2147483648) $int1804)
             (<= $int1804 2147483647)
             (< $a2031801 100000)
             ($main_inv119 $a11981796 $a21991797 $a32001798 $a42011799 $a52021800 $a2031801 $i2041802 $x2051803))
        ($main_inv119 (store $a11981796 $a2031801 $int1804) $a21991797 $a32001798 (store $a42011799 $a2031801 $int1805) $a52021800 (+ $a2031801 1) $i2041802 $x2051803))))

; loop entry $main_inv120
(assert
  (forall (($a42011809 (Array Int Int)) ($x2051813 Int) ($i2041812 Int) ($a21991807 (Array Int Int)) ($a11981806 (Array Int Int)) ($a32001808 (Array Int Int)) ($a2031811 Int) ($a52021810 (Array Int Int)))
    (=> (and ($main_sum119 $a11981806 $a21991807 $a32001808 $a42011809 $a52021810 $a2031811 $i2041812 $x2051813))
        ($main_inv120 $a11981806 $a21991807 $a32001808 $a42011809 $a52021810 $a2031811 0 $x2051813))))

; loop term $main_sum120
(assert
  (forall (($a52021818 (Array Int Int)) ($i2041820 Int) ($x2051821 Int) ($a11981814 (Array Int Int)) ($a42011817 (Array Int Int)) ($a21991815 (Array Int Int)) ($a2031819 Int) ($a32001816 (Array Int Int)))
    (=> (and (not (< $i2041820 100000))
             ($main_inv120 $a11981814 $a21991815 $a32001816 $a42011817 $a52021818 $a2031819 $i2041820 $x2051821))
        ($main_sum120 $a11981814 $a21991815 $a32001816 $a42011817 $a52021818 $a2031819 $i2041820 $x2051821))))

; forwards $main_inv120
(assert
  (forall (($a52021818 (Array Int Int)) ($i2041820 Int) ($x2051821 Int) ($a11981814 (Array Int Int)) ($a42011817 (Array Int Int)) ($a21991815 (Array Int Int)) ($a2031819 Int) ($a32001816 (Array Int Int)))
    (=> (and (< $i2041820 100000)
             ($main_inv120 $a11981814 $a21991815 $a32001816 $a42011817 $a52021818 $a2031819 $i2041820 $x2051821))
        ($main_inv120 $a11981814 (store $a21991815 $i2041820 (select $a11981814 $i2041820)) $a32001816 $a42011817 $a52021818 $a2031819 (+ $i2041820 1) $x2051821))))

; loop entry $main_inv121
(assert
  (forall (($x2051829 Int) ($a42011825 (Array Int Int)) ($a32001824 (Array Int Int)) ($i2041828 Int) ($a21991823 (Array Int Int)) ($a2031827 Int) ($a11981822 (Array Int Int)) ($a52021826 (Array Int Int)))
    (=> (and ($main_sum120 $a11981822 $a21991823 $a32001824 $a42011825 $a52021826 $a2031827 $i2041828 $x2051829))
        ($main_inv121 $a11981822 $a21991823 $a32001824 $a42011825 $a52021826 $a2031827 0 $x2051829))))

; loop term $main_sum121
(assert
  (forall (($a11981830 (Array Int Int)) ($a52021834 (Array Int Int)) ($a42011833 (Array Int Int)) ($i2041836 Int) ($a32001832 (Array Int Int)) ($a2031835 Int) ($a21991831 (Array Int Int)) ($x2051837 Int))
    (=> (and (not (< $i2041836 100000))
             ($main_inv121 $a11981830 $a21991831 $a32001832 $a42011833 $a52021834 $a2031835 $i2041836 $x2051837))
        ($main_sum121 $a11981830 $a21991831 $a32001832 $a42011833 $a52021834 $a2031835 $i2041836 $x2051837))))

; forwards $main_inv121
(assert
  (forall (($a11981830 (Array Int Int)) ($a52021834 (Array Int Int)) ($a42011833 (Array Int Int)) ($i2041836 Int) ($a32001832 (Array Int Int)) ($a2031835 Int) ($a21991831 (Array Int Int)) ($x2051837 Int))
    (=> (and (< $i2041836 100000)
             ($main_inv121 $a11981830 $a21991831 $a32001832 $a42011833 $a52021834 $a2031835 $i2041836 $x2051837))
        ($main_inv121 $a11981830 $a21991831 (store $a32001832 $i2041836 (select $a21991831 $i2041836)) $a42011833 $a52021834 $a2031835 (+ $i2041836 1) $x2051837))))

; loop entry $main_inv122
(assert
  (forall (($a32001840 (Array Int Int)) ($a21991839 (Array Int Int)) ($a42011841 (Array Int Int)) ($x2051845 Int) ($a11981838 (Array Int Int)) ($a2031843 Int) ($a52021842 (Array Int Int)) ($i2041844 Int))
    (=> (and ($main_sum121 $a11981838 $a21991839 $a32001840 $a42011841 $a52021842 $a2031843 $i2041844 $x2051845))
        ($main_inv122 $a11981838 $a21991839 $a32001840 $a42011841 $a52021842 $a2031843 0 $x2051845))))

; loop term $main_sum122
(assert
  (forall (($a21991847 (Array Int Int)) ($a2031851 Int) ($a42011849 (Array Int Int)) ($a32001848 (Array Int Int)) ($x2051853 Int) ($i2041852 Int) ($a52021850 (Array Int Int)) ($a11981846 (Array Int Int)))
    (=> (and (not (< $i2041852 100000))
             ($main_inv122 $a11981846 $a21991847 $a32001848 $a42011849 $a52021850 $a2031851 $i2041852 $x2051853))
        ($main_sum122 $a11981846 $a21991847 $a32001848 $a42011849 $a52021850 $a2031851 $i2041852 $x2051853))))

; forwards $main_inv122
(assert
  (forall (($a21991847 (Array Int Int)) ($a2031851 Int) ($a42011849 (Array Int Int)) ($a32001848 (Array Int Int)) ($x2051853 Int) ($i2041852 Int) ($a52021850 (Array Int Int)) ($a11981846 (Array Int Int)))
    (=> (and (< $i2041852 100000)
             ($main_inv122 $a11981846 $a21991847 $a32001848 $a42011849 $a52021850 $a2031851 $i2041852 $x2051853))
        ($main_inv122 $a11981846 $a21991847 $a32001848 $a42011849 (store $a52021850 $i2041852 (select $a32001848 $i2041852)) $a2031851 (+ $i2041852 1) $x2051853))))

; loop entry $main_inv123
(assert
  (forall (($i2041860 Int) ($a2031859 Int) ($x2051861 Int) ($a21991855 (Array Int Int)) ($a11981854 (Array Int Int)) ($a32001856 (Array Int Int)) ($a42011857 (Array Int Int)) ($a52021858 (Array Int Int)))
    (=> (and ($main_sum122 $a11981854 $a21991855 $a32001856 $a42011857 $a52021858 $a2031859 $i2041860 $x2051861))
        ($main_inv123 $a11981854 $a21991855 $a32001856 $a42011857 $a52021858 $a2031859 0 $x2051861))))

; loop term $main_sum123
(assert
  (forall (($a21991863 (Array Int Int)) ($i2041868 Int) ($a2031867 Int) ($a52021866 (Array Int Int)) ($a32001864 (Array Int Int)) ($x2051869 Int) ($a11981862 (Array Int Int)) ($a42011865 (Array Int Int)))
    (=> (and (not (< $i2041868 100000))
             ($main_inv123 $a11981862 $a21991863 $a32001864 $a42011865 $a52021866 $a2031867 $i2041868 $x2051869))
        ($main_sum123 $a11981862 $a21991863 $a32001864 $a42011865 $a52021866 $a2031867 $i2041868 $x2051869))))

; forwards $main_inv123
(assert
  (forall (($a21991863 (Array Int Int)) ($i2041868 Int) ($a2031867 Int) ($a52021866 (Array Int Int)) ($a32001864 (Array Int Int)) ($x2051869 Int) ($a11981862 (Array Int Int)) ($a42011865 (Array Int Int)))
    (=> (and (< $i2041868 100000)
             ($main_inv123 $a11981862 $a21991863 $a32001864 $a42011865 $a52021866 $a2031867 $i2041868 $x2051869))
        ($main_inv123 $a11981862 $a21991863 $a32001864 $a42011865 (store $a52021866 $i2041868 (select $a42011865 $i2041868)) $a2031867 (+ $i2041868 1) $x2051869))))

; loop entry $main_inv124
(assert
  (forall (($i2041876 Int) ($x2051877 Int) ($a21991871 (Array Int Int)) ($a52021874 (Array Int Int)) ($a32001872 (Array Int Int)) ($a42011873 (Array Int Int)) ($a2031875 Int) ($a11981870 (Array Int Int)))
    (=> (and ($main_sum123 $a11981870 $a21991871 $a32001872 $a42011873 $a52021874 $a2031875 $i2041876 $x2051877))
        ($main_inv124 $a11981870 $a21991871 $a32001872 $a42011873 $a52021874 $a2031875 $i2041876 0))))

; loop term $main_sum124
(assert
  (forall (($x2051885 Int) ($a11981878 (Array Int Int)) ($a21991879 (Array Int Int)) ($a32001880 (Array Int Int)) ($a52021882 (Array Int Int)) ($i2041884 Int) ($a42011881 (Array Int Int)) ($a2031883 Int))
    (=> (and (not (< $x2051885 100000))
             ($main_inv124 $a11981878 $a21991879 $a32001880 $a42011881 $a52021882 $a2031883 $i2041884 $x2051885))
        ($main_sum124 $a11981878 $a21991879 $a32001880 $a42011881 $a52021882 $a2031883 $i2041884 $x2051885))))

; __VERIFIER_assert precondition
(assert
  (forall (($x2051885 Int) ($a11981878 (Array Int Int)) ($a21991879 (Array Int Int)) ($a32001880 (Array Int Int)) ($a52021882 (Array Int Int)) ($i2041884 Int) ($a42011881 (Array Int Int)) ($a2031883 Int))
    (=> (and (< $x2051885 100000)
             ($main_inv124 $a11981878 $a21991879 $a32001880 $a42011881 $a52021882 $a2031883 $i2041884 $x2051885))
        ($__VERIFIER_assert_pre (ite (= (select $a11981878 $x2051885) (select $a52021882 $x2051885)) 1 0)))))

; forwards $main_inv124
(assert
  (forall (($x2051885 Int) ($a11981878 (Array Int Int)) ($a21991879 (Array Int Int)) ($a32001880 (Array Int Int)) ($a52021882 (Array Int Int)) ($i2041884 Int) ($a42011881 (Array Int Int)) ($a2031883 Int))
    (=> (and (__VERIFIER_assert (ite (= (select $a11981878 $x2051885) (select $a52021882 $x2051885)) 1 0))
             (< $x2051885 100000)
             ($main_inv124 $a11981878 $a21991879 $a32001880 $a42011881 $a52021882 $a2031883 $i2041884 $x2051885))
        ($main_inv124 $a11981878 $a21991879 $a32001880 $a42011881 $a52021882 $a2031883 $i2041884 (+ $x2051885 1)))))

(check-sat)
